\* Problem: GLPK Problem *\

Maximize
 obj: + x_9

Subject To
 r_1: - x_3 - x_2 - x_1 = 0
 r_2: - 2 x_6 - x_4 + x_2 = 0
 r_3: - x_7 + x_6 + x_3 = 0
 r_4: - x_5 - x_4 = 0
 r_5: - x_9 + x_7 + 2 x_4 = 0
 r_6: - x_8 + x_6 = 0

Bounds
 -1 <= x_1 <= 999999
 0 <= x_2 <= 999999
 x_3 = 0
 0 <= x_4 <= 999999
 x_5 = 0
 0 <= x_6 <= 999999
 0 <= x_7 <= 999999
 0 <= x_8 <= 999999
 0.5 <= x_9 <= 999999

End
